(set-logic ALL)
(declare-const message_body_VAR String)
(declare-const slack_url_VAR String)
(assert (not (< (str.len slack_url_VAR) 0)))
(assert (not (str.contains slack_url_VAR "\t")))
(assert (not (< (str.len slack_url_VAR) 0)))
(assert (= (+ 0 (str.indexof slack_url_VAR "\t" 0)) (- 1)))
(assert (not (< (str.len (str.++ "" slack_url_VAR)) 0)))
(assert (not (str.contains (str.++ "" slack_url_VAR) "\r")))
(assert (not (< (str.len (str.++ "" slack_url_VAR)) 0)))
(assert (= (+ 0 (str.indexof (str.++ "" slack_url_VAR) "\r" 0)) (- 1)))
(assert (not (< (str.len (str.++ "" (str.++ "" slack_url_VAR))) 0)))
(assert (not (str.contains (str.++ "" (str.++ "" slack_url_VAR)) "\n")))
(assert (not (< (str.len (str.++ "" (str.++ "" slack_url_VAR))) 0)))
(assert (= (+ 0 (str.indexof (str.++ "" (str.++ "" slack_url_VAR)) "\n" 0)) (- 1)))
(assert (not (< (str.len (str.++ "" (str.++ "" (str.++ "" slack_url_VAR)))) 0)))
(assert (str.contains (str.++ "" (str.++ "" (str.++ "" slack_url_VAR))) ":"))
(assert (not (< (str.len (str.++ "" (str.++ "" (str.++ "" slack_url_VAR)))) 0)))
(assert (> (+ 0 (str.indexof (str.++ "" (str.++ "" (str.++ "" slack_url_VAR))) ":" 0)) 0))
(assert (> (str.len (str.++ "" (str.++ "" (str.++ "" slack_url_VAR)))) 0))
(assert (> (str.len (str.++ "" (str.++ "" (str.++ "" slack_url_VAR)))) 0))
(assert (str.in.re (str.at (str.++ "" (str.++ "" (str.++ "" slack_url_VAR))) 0) (re.+ (re.union (re.range "A" "Z") (re.range "a" "z")))))
(assert (not (< (+ 0 (str.indexof (str.++ "" (str.++ "" (str.++ "" slack_url_VAR))) ":" 0)) 0)))
(assert (not (= (str.substr (str.++ "" (str.++ "" (str.++ "" slack_url_VAR))) 0 (- (+ 0 (str.indexof (str.++ "" (str.++ "" (str.++ "" slack_url_VAR))) ":" 0)) 0)) "http")))
(assert (not (< (+ 0 (str.indexof (str.++ "" (str.++ "" (str.++ "" slack_url_VAR))) ":" 0)) 0)))
(assert (< 0 (str.len (str.substr (str.++ "" (str.++ "" (str.++ "" slack_url_VAR))) 0 (- (+ 0 (str.indexof (str.++ "" (str.++ "" (str.++ "" slack_url_VAR))) ":" 0)) 0)))))
(assert (> (str.len (str.substr (str.++ "" (str.++ "" (str.++ "" slack_url_VAR))) 0 (- (+ 0 (str.indexof (str.++ "" (str.++ "" (str.++ "" slack_url_VAR))) ":" 0)) 0))) 0))
(assert (< 1 (str.len (str.substr (str.++ "" (str.++ "" (str.++ "" slack_url_VAR))) 0 (- (+ 0 (str.indexof (str.++ "" (str.++ "" (str.++ "" slack_url_VAR))) ":" 0)) 0)))))
(assert (> (str.len (str.substr (str.++ "" (str.++ "" (str.++ "" slack_url_VAR))) 0 (- (+ 0 (str.indexof (str.++ "" (str.++ "" (str.++ "" slack_url_VAR))) ":" 0)) 0))) 1))
(assert (< 2 (str.len (str.substr (str.++ "" (str.++ "" (str.++ "" slack_url_VAR))) 0 (- (+ 0 (str.indexof (str.++ "" (str.++ "" (str.++ "" slack_url_VAR))) ":" 0)) 0)))))
(assert (> (str.len (str.substr (str.++ "" (str.++ "" (str.++ "" slack_url_VAR))) 0 (- (+ 0 (str.indexof (str.++ "" (str.++ "" (str.++ "" slack_url_VAR))) ":" 0)) 0))) 2))
(assert (< 3 (str.len (str.substr (str.++ "" (str.++ "" (str.++ "" slack_url_VAR))) 0 (- (+ 0 (str.indexof (str.++ "" (str.++ "" (str.++ "" slack_url_VAR))) ":" 0)) 0)))))
(assert (> (str.len (str.substr (str.++ "" (str.++ "" (str.++ "" slack_url_VAR))) 0 (- (+ 0 (str.indexof (str.++ "" (str.++ "" (str.++ "" slack_url_VAR))) ":" 0)) 0))) 3))
(assert (< 4 (str.len (str.substr (str.++ "" (str.++ "" (str.++ "" slack_url_VAR))) 0 (- (+ 0 (str.indexof (str.++ "" (str.++ "" (str.++ "" slack_url_VAR))) ":" 0)) 0)))))
(assert (> (str.len (str.substr (str.++ "" (str.++ "" (str.++ "" slack_url_VAR))) 0 (- (+ 0 (str.indexof (str.++ "" (str.++ "" (str.++ "" slack_url_VAR))) ":" 0)) 0))) 4))
(assert (< 5 (str.len (str.substr (str.++ "" (str.++ "" (str.++ "" slack_url_VAR))) 0 (- (+ 0 (str.indexof (str.++ "" (str.++ "" (str.++ "" slack_url_VAR))) ":" 0)) 0)))))
(assert (> (str.len (str.substr (str.++ "" (str.++ "" (str.++ "" slack_url_VAR))) 0 (- (+ 0 (str.indexof (str.++ "" (str.++ "" (str.++ "" slack_url_VAR))) ":" 0)) 0))) 5))
(assert (not (< 6 (str.len (str.substr (str.++ "" (str.++ "" (str.++ "" slack_url_VAR))) 0 (- (+ 0 (str.indexof (str.++ "" (str.++ "" (str.++ "" slack_url_VAR))) ":" 0)) 0))))))
(assert (< (+ (+ 0 (str.indexof (str.++ "" (str.++ "" (str.++ "" slack_url_VAR))) ":" 0)) 1) 0))
(check-sat)
(get-value (message_body_VAR))
(get-value (slack_url_VAR))
